data/lp_files/pEFS/46_9.lp
\ Model foo
\ LP format - for model browsing. Use MPS format to capture full model detail.
Minimize
  z
Subject To
 allocateEach[1]: x[1,1] + x[2,1] + x[3,1] = 1
 allocateEach[2]: x[1,2] + x[2,2] + x[3,2] = 1
 allocateEach[3]: x[1,3] + x[2,3] + x[3,3] = 1
 allocateEach[4]: x[1,4] + x[2,4] + x[3,4] = 1
 allocateEach[5]: x[1,5] + x[2,5] + x[3,5] = 1
 allocateEach[6]: x[1,6] + x[2,6] + x[3,6] = 1
 allocateAllCash: cashProportion[1] + cashProportion[2] + cashProportion[3]
   = 1
 findWorstP[1,2]: z + 0.3206464231891493 cashProportion[1]
   - 0.3206464231891493 cashProportion[2] + 0.0447301760348863 x[1,1]
   + 0.3198768717734953 x[1,2] + 0.0623336646679706 x[1,3]
   + 0.0405617725334274 x[1,4] + 0.0257799724244076 x[1,5]
   + 0.1860711193766633 x[1,6] - 0.0447301760348863 x[2,1]
   - 0.3198768717734953 x[2,2] - 0.0623336646679706 x[2,3]
   - 0.0405617725334274 x[2,4] - 0.0257799724244076 x[2,5]
   - 0.1860711193766633 x[2,6] >= 0
 findWorstP[1,3]: z + 0.3206464231891493 cashProportion[1]
   - 0.3206464231891493 cashProportion[3] + 0.0447301760348863 x[1,1]
   + 0.3198768717734953 x[1,2] + 0.0623336646679706 x[1,3]
   + 0.0405617725334274 x[1,4] + 0.0257799724244076 x[1,5]
   + 0.1860711193766633 x[1,6] - 0.0447301760348863 x[3,1]
   - 0.3198768717734953 x[3,2] - 0.0623336646679706 x[3,3]
   - 0.0405617725334274 x[3,4] - 0.0257799724244076 x[3,5]
   - 0.1860711193766633 x[3,6] >= 0
 findWorstP[2,1]: z - 0.2244517765358113 cashProportion[1]
   + 0.2244517765358113 cashProportion[2] - 0.0511525598725114 x[1,1]
   - 0.0590532624065719 x[1,2] - 0.1331223486633897 x[1,3]
   - 0.1509662648979866 x[1,4] - 0.1636702354499136 x[1,5]
   - 0.2175835521738154 x[1,6] + 0.0511525598725114 x[2,1]
   + 0.0590532624065719 x[2,2] + 0.1331223486633897 x[2,3]
   + 0.1509662648979866 x[2,4] + 0.1636702354499136 x[2,5]
   + 0.2175835521738154 x[2,6] >= 0
 findWorstP[2,3]: z + 0.2244517765358113 cashProportion[2]
   - 0.2244517765358113 cashProportion[3] + 0.0511525598725114 x[2,1]
   + 0.0590532624065719 x[2,2] + 0.1331223486633897 x[2,3]
   + 0.1509662648979866 x[2,4] + 0.1636702354499136 x[2,5]
   + 0.2175835521738154 x[2,6] - 0.0511525598725114 x[3,1]
   - 0.0590532624065719 x[3,2] - 0.1331223486633897 x[3,3]
   - 0.1509662648979866 x[3,4] - 0.1636702354499136 x[3,5]
   - 0.2175835521738154 x[3,6] >= 0
 findWorstP[3,1]: z - 0.3694945314809341 cashProportion[1]
   + 0.3694945314809341 cashProportion[3] - 0.03798403783624 x[1,1]
   - 0.1271800177357375 x[1,2] - 0.1834170854271357 x[1,3]
   - 0.1065252734259533 x[1,4] - 0.1542639668932899 x[1,5]
   - 0.0211350872007094 x[1,6] + 0.03798403783624 x[3,1]
   + 0.1271800177357375 x[3,2] + 0.1834170854271357 x[3,3]
   + 0.1065252734259533 x[3,4] + 0.1542639668932899 x[3,5]
   + 0.0211350872007094 x[3,6] >= 0
 findWorstP[3,2]: z - 0.3694945314809341 cashProportion[2]
   + 0.3694945314809341 cashProportion[3] - 0.03798403783624 x[2,1]
   - 0.1271800177357375 x[2,2] - 0.1834170854271357 x[2,3]
   - 0.1065252734259533 x[2,4] - 0.1542639668932899 x[2,5]
   - 0.0211350872007094 x[2,6] + 0.03798403783624 x[3,1]
   + 0.1271800177357375 x[3,2] + 0.1834170854271357 x[3,3]
   + 0.1065252734259533 x[3,4] + 0.1542639668932899 x[3,5]
   + 0.0211350872007094 x[3,6] >= 0
Bounds
 z <= 1
 -infinity <= cashProportion[1] <= 1
 -infinity <= cashProportion[2] <= 1
 -infinity <= cashProportion[3] <= 1
Binaries
 x[1,1] x[1,2] x[1,3] x[1,4] x[1,5] x[1,6] x[2,1] x[2,2] x[2,3] x[2,4]
 x[2,5] x[2,6] x[3,1] x[3,2] x[3,3] x[3,4] x[3,5] x[3,6]
End
